unknown
(model
; cardinality of BoundSet is 2
(declare-sort BoundSet 0)
; rep: @uc_BoundSet_0
; rep: @uc_BoundSet_1
; cardinality of UnboundSet is 1
(declare-sort UnboundSet 0)
(declare-fun groundTerm_3 () UnboundSet)
(define-fun IsSmoking ((BOUND_VARIABLE_421 BoundSet)) Bool true)
(define-fun IsLeaningAgainst ((BOUND_VARIABLE_421 BoundSet)) Bool true)
(define-fun IsNearby ((BOUND_VARIABLE_421 BoundSet)) Bool false)
(define-fun IsMissing ((BOUND_VARIABLE_421 BoundSet)) Bool false)
)
sat
(model
; cardinality of BoundSet is 1
(declare-sort BoundSet 0)
; rep: @uc_BoundSet_0
; cardinality of UnboundSet is 1
(declare-sort UnboundSet 0)
(declare-fun groundTerm_6 () UnboundSet)
(define-fun IsSmoking ((BOUND_VARIABLE_458 BoundSet)) Bool true)
(define-fun IsLeaningAgainst ((BOUND_VARIABLE_458 BoundSet)) Bool true)
(define-fun IsNearby ((BOUND_VARIABLE_458 BoundSet)) Bool true)
(define-fun IsMissing ((BOUND_VARIABLE_458 BoundSet)) Bool false)
)
